jobs  (incl. supersource/sink ):	52
RESOURCES
- renewable                 : 2 R
- nonrenewable              : 2 N
- doubly constrained        : 0 D
************************************************************************
PRECEDENCE RELATIONS:
jobnr.    #modes  #successors   successors
1	1	18		2 3 4 5 6 7 8 9 10 11 12 14 16 17 22 25 26 29 
2	3	14		51 50 49 48 46 45 44 42 36 35 33 30 24 20 
3	3	8		49 48 43 42 33 28 15 13 
4	3	11		51 50 49 48 45 44 35 34 33 31 19 
5	3	10		51 49 48 47 46 44 41 27 23 21 
6	3	9		50 48 45 44 43 33 24 20 19 
7	3	6		46 45 44 24 21 13 
8	3	9		51 50 46 45 44 43 34 27 18 
9	3	11		50 48 47 44 43 41 40 38 32 31 27 
10	3	10		49 47 46 44 41 40 33 32 31 27 
11	3	10		50 48 46 41 40 39 38 32 31 30 
12	3	6		46 41 36 31 27 24 
13	3	3		38 27 20 
14	3	6		46 43 40 38 31 27 
15	3	7		51 45 44 40 39 38 32 
16	3	7		47 45 43 42 39 38 30 
17	3	7		42 41 39 38 32 31 30 
18	3	6		49 41 39 33 31 30 
19	3	5		42 41 40 38 27 
20	3	6		47 41 40 39 32 31 
21	3	6		43 42 40 39 37 33 
22	3	6		46 45 43 42 39 37 
23	3	4		45 40 38 32 
24	3	4		40 39 38 37 
25	3	4		44 42 38 37 
26	3	4		44 40 39 38 
27	3	2		39 30 
28	3	2		46 31 
29	3	2		45 37 
30	3	1		37 
31	3	1		37 
32	3	1		37 
33	3	1		38 
34	3	1		42 
35	3	1		43 
36	3	1		40 
37	3	1		52 
38	3	1		52 
39	3	1		52 
40	3	1		52 
41	3	1		52 
42	3	1		52 
43	3	1		52 
44	3	1		52 
45	3	1		52 
46	3	1		52 
47	3	1		52 
48	3	1		52 
49	3	1		52 
50	3	1		52 
51	3	1		52 
52	1	0		
************************************************************************
REQUESTS/DURATIONS
jobnr.	mode	dur	R1	R2	N1	N2	
------------------------------------------------------------------------
1	1	0	0	0	0	0	
2	1	5	5	8	8	10	
	2	7	4	8	8	9	
	3	10	4	7	8	8	
3	1	4	10	2	7	5	
	2	5	10	2	6	4	
	3	7	10	1	6	2	
4	1	1	9	5	8	5	
	2	3	7	3	6	5	
	3	4	6	1	5	1	
5	1	3	5	8	9	4	
	2	5	4	6	7	4	
	3	6	2	4	4	4	
6	1	6	9	9	9	4	
	2	7	8	7	9	3	
	3	8	6	5	9	2	
7	1	3	8	8	6	5	
	2	5	7	5	3	4	
	3	9	6	3	2	4	
8	1	1	2	6	4	7	
	2	6	2	4	3	5	
	3	7	2	2	1	3	
9	1	3	8	7	4	8	
	2	7	7	6	2	8	
	3	10	5	6	1	8	
10	1	2	4	6	5	9	
	2	5	3	4	3	8	
	3	7	3	3	3	8	
11	1	3	8	8	5	8	
	2	4	7	6	5	7	
	3	6	7	4	5	5	
12	1	3	6	7	8	5	
	2	4	5	6	6	5	
	3	5	3	2	3	4	
13	1	7	9	7	5	4	
	2	8	9	4	4	4	
	3	10	9	1	4	3	
14	1	4	8	6	8	8	
	2	5	5	5	7	5	
	3	6	2	4	4	5	
15	1	1	7	3	8	6	
	2	6	7	2	6	5	
	3	9	5	2	6	5	
16	1	1	7	7	9	3	
	2	2	6	7	8	2	
	3	3	4	7	6	1	
17	1	3	10	4	6	2	
	2	7	9	3	5	1	
	3	10	8	2	5	1	
18	1	1	2	7	8	4	
	2	3	2	6	8	4	
	3	9	2	5	8	4	
19	1	1	10	7	8	8	
	2	7	4	6	5	6	
	3	8	4	3	3	4	
20	1	2	6	8	8	7	
	2	5	5	7	5	5	
	3	9	5	7	3	5	
21	1	5	5	2	7	8	
	2	6	4	2	4	7	
	3	7	3	2	2	4	
22	1	4	9	6	10	8	
	2	5	5	3	8	8	
	3	7	2	3	8	5	
23	1	1	8	3	2	4	
	2	7	7	1	2	4	
	3	8	7	1	2	2	
24	1	1	2	5	4	8	
	2	2	2	4	4	7	
	3	3	2	4	4	6	
25	1	4	5	8	2	2	
	2	9	3	6	1	2	
	3	10	3	3	1	2	
26	1	5	10	7	7	9	
	2	8	5	5	5	8	
	3	9	3	1	5	8	
27	1	4	6	7	8	9	
	2	5	3	7	4	8	
	3	7	3	7	2	7	
28	1	1	6	5	5	4	
	2	2	6	5	5	3	
	3	8	6	1	4	3	
29	1	3	8	9	7	10	
	2	7	7	6	7	4	
	3	8	1	5	7	2	
30	1	1	3	8	4	9	
	2	3	2	8	3	9	
	3	9	1	6	3	9	
31	1	3	6	3	8	2	
	2	9	4	2	6	2	
	3	10	4	2	4	1	
32	1	1	3	6	2	7	
	2	4	3	3	1	3	
	3	7	1	2	1	1	
33	1	2	9	6	6	8	
	2	4	6	5	5	7	
	3	8	5	3	3	7	
34	1	2	10	4	6	4	
	2	6	7	3	6	4	
	3	8	5	2	4	2	
35	1	4	8	5	6	10	
	2	5	6	3	6	9	
	3	9	3	2	5	7	
36	1	4	4	8	4	8	
	2	6	3	5	3	6	
	3	7	2	2	2	6	
37	1	2	9	4	7	8	
	2	6	7	4	7	6	
	3	7	3	3	4	5	
38	1	6	5	7	5	5	
	2	7	4	6	4	4	
	3	10	4	6	3	1	
39	1	1	7	8	10	8	
	2	2	4	7	7	3	
	3	9	3	5	4	3	
40	1	5	4	3	6	8	
	2	6	3	3	5	6	
	3	8	2	3	4	4	
41	1	4	6	5	5	5	
	2	5	3	5	3	5	
	3	6	1	2	2	5	
42	1	4	7	3	7	8	
	2	5	6	1	6	7	
	3	6	5	1	6	7	
43	1	2	9	9	9	5	
	2	6	9	8	7	5	
	3	10	9	7	1	2	
44	1	2	9	6	9	3	
	2	3	7	4	8	3	
	3	6	7	2	8	3	
45	1	2	9	8	7	7	
	2	6	6	8	6	6	
	3	10	6	6	6	6	
46	1	3	7	2	5	10	
	2	7	7	2	4	9	
	3	10	5	2	4	9	
47	1	6	8	10	10	4	
	2	7	8	5	9	4	
	3	9	8	3	9	4	
48	1	3	6	7	7	8	
	2	6	6	7	7	5	
	3	7	6	7	7	2	
49	1	4	3	6	4	9	
	2	7	3	6	2	5	
	3	9	2	6	2	5	
50	1	2	6	5	3	7	
	2	3	5	4	3	4	
	3	6	4	4	3	2	
51	1	4	6	9	7	3	
	2	5	4	4	5	2	
	3	10	1	4	4	2	
52	1	0	0	0	0	0	
************************************************************************

 RESOURCE AVAILABILITIES 
	R 1	R 2	N 1	N 2
	40	37	266	264

************************************************************************
